09-routing/solutions/XSH-n20-k4-43.opt.sol
Route #1: 3 18 2 17
Route #2: 13 6 16 19
Route #3: 4 11 12 15 10 8 1
Route #4: 5 7 20 9 14
Cost 465
